c "328947.clq"
p edge 120 464
e 1 5
e 1 6
e 1 7
e 1 8
e 1 10
e 1 11
e 1 15
e 1 16
e 1 20
e 1 21
e 1 24
e 1 26
e 1 33
e 1 38
e 1 41
e 1 50
e 1 58
e 1 65
e 1 71
e 1 83
e 1 84
e 1 86
e 1 87
e 1 92
e 1 95
e 1 97
e 1 103
e 1 105
e 1 107
e 1 112
e 2 5
e 2 6
e 2 7
e 2 9
e 2 12
e 2 17
e 2 31
e 2 34
e 2 41
e 2 49
e 2 51
e 2 70
e 2 75
e 2 85
e 2 96
e 2 103
e 3 5
e 3 6
e 3 8
e 3 9
e 3 10
e 3 14
e 3 22
e 3 26
e 3 33
e 3 43
e 3 47
e 3 59
e 3 79
e 3 104
e 3 117
e 3 118
e 4 5
e 4 15
e 4 19
e 4 34
e 4 45
e 4 50
e 4 65
e 4 82
e 4 86
e 4 93
e 5 6
e 5 7
e 5 8
e 5 9
e 5 10
e 5 11
e 5 13
e 5 14
e 5 20
e 5 23
e 5 30
e 5 45
e 5 49
e 5 58
e 5 63
e 5 72
e 5 77
e 5 79
e 5 101
e 6 7
e 6 9
e 6 11
e 6 13
e 6 17
e 6 19
e 6 21
e 6 27
e 6 39
e 6 44
e 6 52
e 6 55
e 6 56
e 6 59
e 6 60
e 6 65
e 6 66
e 6 76
e 6 84
e 6 92
e 6 98
e 6 106
e 6 108
e 6 109
e 6 113
e 7 8
e 7 13
e 7 17
e 7 18
e 7 24
e 7 39
e 7 43
e 7 46
e 7 57
e 7 64
e 7 80
e 7 91
e 7 99
e 7 100
e 7 110
e 7 118
e 8 12
e 8 25
e 8 52
e 8 53
e 8 71
e 8 72
e 8 85
e 8 101
e 9 10
e 9 12
e 9 26
e 9 31
e 9 54
e 9 66
e 9 72
e 9 74
e 9 98
e 9 106
e 9 120
e 10 11
e 10 14
e 10 18
e 10 26
e 10 34
e 10 39
e 10 46
e 10 50
e 10 67
e 10 76
e 10 77
e 10 105
e 10 111
e 10 112
e 10 115
e 11 12
e 11 13
e 11 15
e 11 16
e 11 19
e 11 27
e 11 29
e 11 45
e 11 47
e 11 51
e 11 67
e 11 69
e 11 88
e 11 90
e 11 99
e 11 103
e 11 106
e 12 15
e 12 18
e 12 20
e 12 27
e 12 28
e 12 30
e 12 36
e 12 38
e 12 42
e 12 43
e 12 68
e 12 70
e 12 75
e 12 90
e 12 96
e 12 98
e 12 110
e 13 14
e 13 16
e 13 18
e 13 21
e 13 25
e 13 29
e 13 37
e 13 40
e 13 42
e 13 46
e 13 47
e 13 53
e 13 57
e 13 97
e 13 113
e 13 117
e 14 22
e 14 27
e 14 30
e 14 35
e 14 55
e 14 58
e 14 68
e 14 69
e 14 82
e 14 96
e 14 100
e 14 119
e 15 16
e 15 17
e 15 21
e 15 22
e 15 29
e 15 37
e 15 38
e 15 41
e 16 20
e 16 35
e 16 36
e 16 40
e 16 58
e 16 60
e 16 66
e 16 81
e 16 93
e 16 99
e 16 105
e 16 119
e 17 23
e 17 24
e 17 25
e 17 29
e 17 31
e 17 32
e 17 40
e 17 63
e 17 70
e 17 87
e 17 88
e 17 91
e 17 114
e 18 19
e 18 33
e 18 41
e 18 52
e 18 80
e 18 89
e 19 44
e 19 71
e 19 73
e 20 22
e 20 23
e 20 24
e 20 25
e 20 32
e 20 38
e 20 49
e 20 52
e 20 53
e 20 56
e 20 62
e 20 67
e 20 72
e 20 77
e 20 85
e 20 87
e 20 94
e 20 96
e 20 101
e 20 102
e 20 108
e 20 114
e 21 28
e 21 30
e 21 79
e 21 90
e 22 23
e 22 28
e 22 34
e 22 42
e 22 44
e 23 28
e 23 69
e 23 70
e 23 102
e 24 32
e 24 36
e 24 62
e 24 79
e 24 100
e 25 37
e 25 48
e 25 56
e 25 73
e 25 82
e 25 94
e 26 73
e 26 82
e 27 61
e 27 112
e 28 40
e 28 61
e 28 69
e 28 78
e 28 116
e 29 31
e 29 35
e 29 36
e 29 56
e 29 107
e 30 46
e 30 59
e 30 89
e 30 116
e 30 120
e 31 32
e 31 35
e 31 48
e 31 50
e 31 74
e 31 113
e 31 114
e 32 33
e 32 37
e 32 48
e 32 49
e 32 54
e 32 115
e 34 39
e 34 44
e 34 61
e 34 63
e 34 68
e 34 73
e 34 74
e 34 76
e 34 94
e 35 48
e 35 55
e 35 66
e 35 80
e 35 111
e 35 119
e 36 51
e 36 93
e 36 107
e 36 109
e 37 45
e 37 51
e 37 67
e 37 91
e 38 86
e 40 103
e 40 104
e 41 42
e 41 47
e 41 88
e 41 97
e 41 112
e 42 43
e 42 60
e 42 75
e 42 87
e 42 116
e 43 60
e 43 71
e 44 77
e 45 54
e 46 78
e 46 84
e 47 57
e 47 61
e 47 74
e 48 53
e 48 75
e 48 85
e 48 91
e 49 89
e 49 93
e 49 95
e 49 102
e 49 111
e 50 57
e 50 63
e 51 54
e 51 55
e 51 59
e 51 68
e 51 81
e 51 105
e 51 120
e 52 64
e 52 76
e 52 90
e 52 107
e 54 62
e 54 78
e 54 115
e 54 118
e 56 64
e 60 89
e 61 62
e 61 64
e 61 104
e 64 65
e 64 108
e 65 81
e 65 83
e 65 94
e 67 104
e 69 78
e 69 92
e 71 83
e 71 95
e 71 119
e 73 84
e 74 81
e 75 83
e 75 86
e 75 95
e 76 113
e 77 109
e 78 80
e 79 106
e 80 110
e 81 99
e 81 102
e 84 118
e 87 88
e 87 120
e 88 98
e 88 116
e 89 92
e 89 100
e 89 101
e 89 115
e 93 97
e 95 111
e 98 109
e 98 110
e 100 108
e 100 114
e 107 117
e 108 117
